p cnf 91 268
c t mc
1 2 -3 0
-1 -2 -3 0
1 -2 3 0
-1 2 3 0
-3 4 -5 0
3 -4 -5 0
-3 -4 5 0
3 4 5 0
-8 6 0
-8 7 0
-6 -7 8 0
9 3 0
9 -8 0
-3 8 -9 0
13 11 0
13 -12 0
-11 12 -13 0
-14 -10 0
-14 -13 0
10 13 14 0
-15 -9 0
-15 -14 0
9 14 15 0
-16 5 0
-16 15 0
-5 -15 16 0
6 7 -18 0
-6 -7 -18 0
6 -7 18 0
-6 7 18 0
-19 -17 0
-19 -18 0
17 18 19 0
-13 20 -21 0
13 -20 -21 0
-13 -20 21 0
13 20 21 0
24 22 0
24 -23 0
-22 23 -24 0
-26 -24 0
-26 25 0
24 -25 26 0
27 -1 0
27 26 0
1 -26 -27 0
29 26 0
29 -28 0
-26 28 -29 0
27 -29 -30 0
-27 29 -30 0
27 29 30 0
-27 -29 30 0
31 -11 0
31 -30 0
11 30 -31 0
33 -17 0
33 -32 0
17 32 -33 0
-34 -31 0
-34 33 0
31 -33 34 0
35 21 0
35 34 0
-21 -34 -35 0
35 3 -36 0
-35 -3 -36 0
35 -3 36 0
-35 3 36 0
19 -36 -37 0
-19 36 -37 0
19 36 37 0
-19 -36 37 0
-38 -16 0
-38 37 0
16 -37 38 0
-40 -39 0
-40 -22 0
39 22 40 0
-41 26 0
-41 40 0
-26 -40 41 0
41 24 -42 0
-41 -24 -42 0
41 -24 42 0
-41 24 42 0
24 23 -43 0
-24 -23 -43 0
24 -23 43 0
-24 23 43 0
-10 -39 -44 0
10 39 -44 0
-10 39 44 0
10 -39 44 0
-27 20 -45 0
27 -20 -45 0
-27 -20 45 0
27 20 45 0
-46 -44 0
-46 -45 0
44 45 46 0
47 43 0
47 46 0
-43 -46 -47 0
48 -42 0
48 -47 0
42 47 -48 0
49 4 0
49 40 0
-4 -40 -49 0
-50 49 0
-50 -40 0
-49 40 50 0
51 -30 0
51 -11 0
30 11 -51 0
-53 17 0
-53 52 0
-17 -52 53 0
54 53 0
54 11 0
-53 -11 -54 0
-55 -23 0
-55 -54 0
23 54 55 0
-51 55 -56 0
51 -55 -56 0
-51 -55 56 0
51 55 56 0
57 -50 0
57 -56 0
50 56 -57 0
-40 -18 -58 0
40 18 -58 0
-40 18 58 0
40 -18 58 0
59 -57 0
59 -58 0
57 58 -59 0
2 22 -60 0
-2 -22 -60 0
2 -22 60 0
-2 22 60 0
-61 59 0
-61 60 0
-59 -60 61 0
48 61 -62 0
-48 -61 -62 0
48 -61 62 0
-48 61 62 0
-64 -63 0
-64 -30 0
63 30 64 0
-64 63 -65 0
64 -63 -65 0
-64 -63 65 0
64 63 65 0
-67 -9 0
-67 -66 0
9 66 67 0
-68 -39 0
-68 53 0
39 -53 68 0
-69 -67 0
-69 -68 0
67 68 69 0
70 65 0
70 -69 0
-65 69 -70 0
33 71 0
-33 71 0
-72 -24 0
-72 12 0
24 -12 72 0
73 -71 0
73 -72 0
71 72 -73 0
-1 22 -75 0
1 -22 -75 0
-1 -22 75 0
1 22 75 0
76 -74 0
76 -75 0
74 75 -76 0
17 -29 -77 0
-17 29 -77 0
17 29 77 0
-17 -29 77 0
78 -76 0
78 77 0
76 -77 -78 0
-73 -78 -79 0
73 78 -79 0
-73 78 79 0
73 -78 79 0
80 70 0
80 -79 0
-70 79 -80 0
32 12 -81 0
-32 -12 -81 0
32 -12 81 0
-32 12 81 0
82 80 0
82 81 0
-80 -81 -82 0
-84 -39 0
-84 83 0
39 -83 84 0
85 22 0
85 75 0
-22 -75 -85 0
-84 85 -86 0
84 -85 -86 0
-84 -85 86 0
84 85 86 0
-87 -82 0
-87 86 0
82 -86 87 0
88 62 0
88 87 0
-62 -87 -88 0
-89 24 0
-89 -63 0
-24 63 89 0
-90 -88 0
-90 89 0
88 -89 90 0
-91 38 0
-91 -90 0
-38 90 91 0
-16 61 -11 28 0
-47 -55 6 -27 -23 80 0
67 -28 66 5 -6 -54 26 -73 -58 61 0
-62 2 -68 -61 -22 -73 3 0
27 67 33 1 -72 47 -51 38 79 0
-19 59 72 -80 -52 20 0
-68 55 73 16 0
22 -25 -65 74 -24 0
-21 64 -78 -11 55 -27 0
-38 74 19 -35 -54 -80 -83 20 0
-49 91 6 17 84 -54 -14 0
85 13 -62 44 0
-84 -34 35 -77 30 32 0
28 22 -52 0
-16 43 91 -78 70 -84 -13 -36 0
74 23 0
72 34 -73 78 -51 -45 32 86 59 0
90 31 71 73 32 13 21 42 0
4 -40 90 61 86 24 62 25 0
-33 -10 0
34 -43 26 74 19 0
58 29 55 61 -72 50 0
-58 81 0
55 -84 -17 -37 -7 -38 6 -14 0
-10 90 -72 -60 0
-33 81 52 -50 -3 -67 10 0
-81 41 66 0
-31 -34 -35 82 -80 -20 0
42 88 49 4 28 -64 19 -21 0
-33 -4 -50 77 -27 15 58 -7 0
-36 -59 0
36 26 73 -83 0
-68 53 -29 65 13 0
-23 -70 61 21 -29 24 30 0
40 52 64 57 12 -5 -87 0
21 -65 17 50 0
87 -55 78 0
91 0
